
NAME : Custom-CVRP
COMMENT : Custom generated data set
TYPE : CVRP
DIMENSION : 501
EDGE_WEIGHT_TYPE : EUC_2D
CAPACITY : 10
NODE_COORD_SECTION
 1 32 191
 2 7 93
 3 171 22
 4 107 181
 5 40 82
 6 196 28
 7 157 184
 8 128 110
 9 94 179
 10 4 114
 11 33 90
 12 178 196
 13 66 119
 14 3 136
 15 95 168
 16 169 86
 17 51 150
 18 93 5
 19 181 158
 20 54 147
 21 174 57
 22 131 132
 23 145 68
 24 31 133
 25 147 99
 26 117 186
 27 151 102
 28 98 145
 29 174 10
 30 15 113
 31 39 98
 32 10 57
 33 91 64
 34 196 131
 35 74 71
 36 83 13
 37 170 162
 38 199 31
 39 105 114
 40 74 197
 41 60 16
 42 151 32
 43 185 10
 44 174 13
 45 179 83
 46 128 128
 47 42 180
 48 95 78
 49 115 87
 50 51 134
 51 35 8
 52 120 67
 53 58 200
 54 19 60
 55 53 98
 56 77 108
 57 3 35
 58 179 50
 59 36 38
 60 150 68
 61 157 35
 62 16 149
 63 176 171
 64 39 153
 65 36 22
 66 10 12
 67 33 64
 68 131 192
 69 17 19
 70 127 141
 71 199 105
 72 145 162
 73 53 187
 74 90 167
 75 155 172
 76 183 82
 77 200 105
 78 178 124
 79 186 70
 80 166 178
 81 105 104
 82 32 174
 83 142 93
 84 148 135
 85 135 17
 86 127 138
 87 48 115
 88 152 117
 89 14 130
 90 42 138
 91 86 31
 92 134 78
 93 70 138
 94 25 169
 95 27 29
 96 34 183
 97 177 32
 98 8 163
 99 148 49
 100 51 24
 101 157 14
 102 103 86
 103 4 65
 104 192 30
 105 162 180
 106 143 171
 107 165 7
 108 18 50
 109 7 122
 110 165 176
 111 149 50
 112 55 5
 113 194 33
 114 148 119
 115 195 80
 116 177 93
 117 81 78
 118 162 31
 119 65 134
 120 89 32
 121 100 53
 122 104 33
 123 24 96
 124 110 154
 125 95 149
 126 26 163
 127 29 119
 128 79 55
 129 41 176
 130 69 58
 131 21 127
 132 176 16
 133 64 164
 134 123 17
 135 42 74
 136 120 2
 137 197 71
 138 73 84
 139 69 154
 140 87 196
 141 110 95
 142 195 136
 143 103 143
 144 1 190
 145 182 56
 146 15 184
 147 48 182
 148 144 115
 149 92 64
 150 121 188
 151 155 54
 152 160 164
 153 196 187
 154 188 82
 155 150 54
 156 185 157
 157 113 193
 158 133 17
 159 71 53
 160 10 196
 161 194 178
 162 18 122
 163 111 49
 164 200 4
 165 41 182
 166 131 116
 167 175 189
 168 36 102
 169 138 132
 170 117 52
 171 149 138
 172 15 149
 173 196 146
 174 148 65
 175 24 55
 176 145 109
 177 48 45
 178 120 81
 179 162 8
 180 108 54
 181 14 145
 182 60 128
 183 169 47
 184 94 7
 185 128 15
 186 60 91
 187 99 188
 188 147 192
 189 98 2
 190 88 124
 191 61 55
 192 118 164
 193 7 135
 194 180 150
 195 189 84
 196 83 141
 197 148 196
 198 197 98
 199 48 28
 200 77 60
 201 4 76
 202 24 96
 203 13 32
 204 152 162
 205 168 13
 206 107 141
 207 147 142
 208 102 84
 209 2 198
 210 86 76
 211 173 57
 212 59 57
 213 157 143
 214 93 97
 215 92 139
 216 114 100
 217 152 82
 218 66 199
 219 56 109
 220 125 193
 221 138 127
 222 166 90
 223 1 21
 224 144 2
 225 71 90
 226 60 26
 227 2 3
 228 129 20
 229 92 10
 230 162 173
 231 104 165
 232 117 111
 233 153 98
 234 106 142
 235 189 120
 236 190 33
 237 46 166
 238 58 75
 239 176 8
 240 34 60
 241 111 183
 242 133 78
 243 66 24
 244 5 121
 245 67 93
 246 169 70
 247 110 6
 248 89 34
 249 79 162
 250 171 129
 251 124 125
 252 30 88
 253 90 85
 254 87 104
 255 157 108
 256 93 96
 257 174 67
 258 200 11
 259 132 95
 260 40 186
 261 21 118
 262 83 72
 263 121 181
 264 33 196
 265 46 110
 266 122 109
 267 47 159
 268 43 105
 269 177 73
 270 50 118
 271 92 10
 272 101 191
 273 85 51
 274 98 36
 275 178 145
 276 154 5
 277 87 179
 278 168 177
 279 28 73
 280 150 130
 281 104 40
 282 92 13
 283 54 44
 284 90 125
 285 2 92
 286 118 64
 287 35 182
 288 138 67
 289 141 99
 290 76 137
 291 183 120
 292 98 153
 293 115 128
 294 109 57
 295 43 58
 296 100 169
 297 128 3
 298 56 46
 299 92 170
 300 155 182
 301 180 87
 302 25 183
 303 59 57
 304 145 131
 305 7 145
 306 165 2
 307 193 1
 308 14 193
 309 171 5
 310 160 56
 311 134 62
 312 92 163
 313 159 58
 314 60 136
 315 169 51
 316 172 180
 317 116 74
 318 168 172
 319 19 160
 320 72 79
 321 186 161
 322 138 101
 323 175 64
 324 39 199
 325 49 193
 326 106 42
 327 175 170
 328 26 48
 329 137 200
 330 43 75
 331 5 179
 332 128 95
 333 64 96
 334 199 182
 335 138 189
 336 68 48
 337 70 12
 338 104 48
 339 138 12
 340 11 52
 341 188 178
 342 107 56
 343 59 199
 344 147 29
 345 191 195
 346 182 12
 347 164 64
 348 154 164
 349 107 91
 350 182 28
 351 17 93
 352 197 94
 353 192 60
 354 81 154
 355 170 180
 356 153 76
 357 197 86
 358 187 5
 359 160 152
 360 189 168
 361 76 167
 362 187 61
 363 167 159
 364 48 185
 365 120 193
 366 116 10
 367 36 125
 368 86 16
 369 52 94
 370 15 53
 371 169 73
 372 113 26
 373 143 5
 374 58 181
 375 19 158
 376 80 99
 377 50 31
 378 37 187
 379 32 128
 380 35 152
 381 177 86
 382 133 94
 383 139 142
 384 167 14
 385 116 88
 386 61 153
 387 191 139
 388 149 24
 389 117 99
 390 50 98
 391 159 27
 392 115 79
 393 16 83
 394 111 174
 395 128 31
 396 129 62
 397 192 4
 398 30 52
 399 158 89
 400 113 51
 401 86 64
 402 129 123
 403 83 84
 404 149 196
 405 9 168
 406 150 83
 407 28 44
 408 120 103
 409 75 184
 410 182 5
 411 40 29
 412 14 143
 413 158 25
 414 101 43
 415 122 89
 416 73 80
 417 72 97
 418 3 27
 419 110 47
 420 152 190
 421 193 111
 422 32 69
 423 37 198
 424 70 96
 425 111 190
 426 145 77
 427 103 164
 428 119 40
 429 30 182
 430 50 71
 431 137 167
 432 82 92
 433 99 111
 434 188 41
 435 183 59
 436 15 145
 437 36 124
 438 26 113
 439 163 160
 440 84 185
 441 171 63
 442 184 161
 443 86 35
 444 125 54
 445 195 143
 446 191 11
 447 153 164
 448 64 188
 449 27 12
 450 162 113
 451 22 66
 452 194 3
 453 111 74
 454 182 24
 455 65 165
 456 191 188
 457 184 183
 458 85 44
 459 71 136
 460 64 196
 461 190 53
 462 6 200
 463 138 148
 464 87 150
 465 103 59
 466 149 131
 467 163 82
 468 81 33
 469 42 22
 470 168 167
 471 60 183
 472 134 142
 473 148 125
 474 128 173
 475 37 20
 476 150 139
 477 35 37
 478 167 94
 479 102 166
 480 12 83
 481 173 135
 482 33 37
 483 179 5
 484 184 186
 485 133 168
 486 200 93
 487 1 110
 488 83 159
 489 101 13
 490 120 110
 491 43 158
 492 92 69
 493 25 155
 494 40 104
 495 81 124
 496 122 16
 497 126 147
 498 57 119
 499 55 71
 500 173 78
 501 15 24
DEMAND_SECTION
 1 0
 2 2
 3 3
 4 1
 5 3
 6 3
 7 3
 8 3
 9 1
 10 2
 11 1
 12 2
 13 2
 14 1
 15 3
 16 3
 17 1
 18 2
 19 2
 20 3
 21 1
 22 3
 23 2
 24 1
 25 2
 26 1
 27 2
 28 1
 29 3
 30 1
 31 3
 32 1
 33 2
 34 2
 35 1
 36 3
 37 1
 38 2
 39 3
 40 3
 41 1
 42 3
 43 2
 44 2
 45 1
 46 3
 47 1
 48 2
 49 2
 50 1
 51 2
 52 2
 53 1
 54 1
 55 3
 56 1
 57 2
 58 3
 59 3
 60 2
 61 1
 62 3
 63 3
 64 3
 65 3
 66 2
 67 2
 68 3
 69 1
 70 2
 71 1
 72 1
 73 2
 74 3
 75 1
 76 2
 77 2
 78 1
 79 1
 80 3
 81 2
 82 3
 83 3
 84 3
 85 1
 86 1
 87 3
 88 2
 89 3
 90 1
 91 2
 92 1
 93 1
 94 1
 95 3
 96 2
 97 2
 98 2
 99 1
 100 2
 101 3
 102 3
 103 1
 104 2
 105 2
 106 3
 107 2
 108 3
 109 2
 110 1
 111 3
 112 3
 113 3
 114 2
 115 3
 116 2
 117 1
 118 2
 119 1
 120 1
 121 3
 122 3
 123 1
 124 1
 125 1
 126 3
 127 1
 128 1
 129 2
 130 3
 131 3
 132 2
 133 2
 134 3
 135 2
 136 2
 137 2
 138 3
 139 1
 140 3
 141 2
 142 3
 143 3
 144 2
 145 3
 146 2
 147 1
 148 1
 149 1
 150 2
 151 2
 152 1
 153 3
 154 2
 155 1
 156 1
 157 3
 158 3
 159 3
 160 1
 161 1
 162 3
 163 3
 164 3
 165 3
 166 1
 167 3
 168 3
 169 3
 170 3
 171 2
 172 2
 173 3
 174 3
 175 2
 176 2
 177 3
 178 2
 179 1
 180 1
 181 3
 182 1
 183 3
 184 2
 185 3
 186 1
 187 2
 188 2
 189 1
 190 1
 191 2
 192 3
 193 2
 194 1
 195 3
 196 3
 197 1
 198 2
 199 2
 200 2
 201 2
 202 2
 203 3
 204 1
 205 2
 206 1
 207 3
 208 1
 209 1
 210 2
 211 1
 212 1
 213 1
 214 3
 215 3
 216 1
 217 3
 218 3
 219 1
 220 3
 221 1
 222 1
 223 2
 224 3
 225 1
 226 1
 227 2
 228 1
 229 2
 230 1
 231 1
 232 1
 233 3
 234 2
 235 2
 236 2
 237 3
 238 1
 239 1
 240 1
 241 2
 242 1
 243 1
 244 1
 245 3
 246 3
 247 1
 248 2
 249 2
 250 2
 251 2
 252 1
 253 3
 254 2
 255 2
 256 2
 257 1
 258 1
 259 3
 260 2
 261 3
 262 3
 263 1
 264 1
 265 1
 266 2
 267 3
 268 1
 269 3
 270 1
 271 1
 272 3
 273 1
 274 1
 275 2
 276 2
 277 1
 278 1
 279 1
 280 3
 281 1
 282 3
 283 3
 284 3
 285 1
 286 2
 287 1
 288 1
 289 3
 290 2
 291 2
 292 2
 293 2
 294 3
 295 2
 296 3
 297 3
 298 3
 299 3
 300 3
 301 3
 302 3
 303 1
 304 3
 305 3
 306 1
 307 2
 308 1
 309 2
 310 3
 311 3
 312 3
 313 2
 314 1
 315 3
 316 3
 317 1
 318 1
 319 2
 320 2
 321 2
 322 3
 323 2
 324 3
 325 3
 326 1
 327 1
 328 3
 329 2
 330 1
 331 1
 332 2
 333 1
 334 1
 335 2
 336 3
 337 3
 338 1
 339 2
 340 3
 341 2
 342 1
 343 3
 344 2
 345 2
 346 1
 347 2
 348 1
 349 2
 350 1
 351 2
 352 1
 353 1
 354 3
 355 1
 356 2
 357 1
 358 3
 359 2
 360 1
 361 2
 362 2
 363 2
 364 3
 365 3
 366 2
 367 3
 368 2
 369 1
 370 3
 371 1
 372 2
 373 1
 374 3
 375 3
 376 2
 377 3
 378 3
 379 3
 380 1
 381 3
 382 1
 383 2
 384 2
 385 1
 386 2
 387 1
 388 1
 389 3
 390 1
 391 3
 392 3
 393 3
 394 3
 395 3
 396 1
 397 2
 398 2
 399 1
 400 2
 401 3
 402 1
 403 2
 404 3
 405 1
 406 2
 407 1
 408 2
 409 3
 410 3
 411 2
 412 1
 413 1
 414 3
 415 1
 416 3
 417 3
 418 3
 419 3
 420 3
 421 1
 422 1
 423 1
 424 3
 425 3
 426 1
 427 2
 428 1
 429 3
 430 2
 431 3
 432 3
 433 1
 434 3
 435 3
 436 2
 437 3
 438 2
 439 3
 440 1
 441 1
 442 1
 443 1
 444 1
 445 3
 446 2
 447 3
 448 2
 449 3
 450 1
 451 3
 452 3
 453 2
 454 1
 455 2
 456 1
 457 3
 458 1
 459 3
 460 1
 461 3
 462 2
 463 2
 464 1
 465 3
 466 3
 467 1
 468 2
 469 2
 470 1
 471 3
 472 1
 473 1
 474 2
 475 1
 476 3
 477 1
 478 1
 479 2
 480 1
 481 3
 482 3
 483 3
 484 3
 485 2
 486 2
 487 1
 488 3
 489 2
 490 2
 491 3
 492 3
 493 1
 494 2
 495 2
 496 3
 497 1
 498 2
 499 1
 500 2
 501 3
DEPOT_SECTION
 1
 -1
EOF
